<number of tasks>
50

<cycle time>
1000

<order strength>
0.195


<task times>
1 455
2 401
3 659
4 392
5 625
6 478
7 668
8 467
9 493
10 445
11 334
12 525
13 167
14 455
15 515
16 433
17 396
18 587
19 339
20 658
21 316
22 506
23 305
24 424
25 447
26 332
27 354
28 599
29 430
30 436
31 585
32 387
33 453
34 589
35 443
36 559
37 470
38 764
39 369
40 516
41 431
42 396
43 449
44 437
45 555
46 291
47 517
48 508
49 454
50 394

<precedence relations>
1,8
1,10
1,12
2,29
3,30
5,7
5,9
5,34
6,24
6,34
7,11
7,12
8,16
9,13
9,15
10,11
10,14
10,17
12,19
12,45
14,22
16,18
16,23
17,20
17,21
17,47
18,25
18,28
19,24
20,36
21,27
22,26
22,29
25,34
26,32
26,35
26,49
28,33
28,36
29,30
29,31
30,37
30,40
30,43
31,44
32,42
34,41
36,38
36,39
37,48
38,45
41,46
41,49
41,50
42,44
43,47

<end>
